; benchmark generated from python API
(set-info :status unknown)
(declare-fun x_months () Int)
(declare-fun x_beta () Int)
(declare-fun y_months () Int)
(declare-fun y_beta () Int)
(assert
 (<= (- 1200) x_months))
(assert
 (>= 1199 x_months))
(assert
 (let ((?x5365 (mod x_months 48)))
 (let ((?x211 ((as const (Array Int Int)) 0)))
 (let ((?x213 (store ?x211 0 31)))
 (let ((?x216 (store ?x213 1 30)))
 (let ((?x218 (store ?x216 2 31)))
 (let ((?x220 (store ?x218 3 30)))
 (let ((?x222 (store ?x220 4 31)))
 (let ((?x224 (store ?x222 5 31)))
 (let ((?x226 (store ?x224 6 30)))
 (let ((?x228 (store ?x226 7 31)))
 (let ((?x230 (store ?x228 8 30)))
 (let ((?x232 (store ?x230 9 31)))
 (let ((?x234 (store ?x232 10 31)))
 (let ((?x237 (store ?x234 11 28)))
 (let ((?x239 (store ?x237 12 31)))
 (let ((?x241 (store ?x239 13 30)))
 (let ((?x243 (store ?x241 14 31)))
 (let ((?x245 (store ?x243 15 30)))
 (let ((?x247 (store ?x245 16 31)))
 (let ((?x249 (store ?x247 17 31)))
 (let ((?x251 (store ?x249 18 30)))
 (let ((?x253 (store ?x251 19 31)))
 (let ((?x255 (store ?x253 20 30)))
 (let ((?x257 (store ?x255 21 31)))
 (let ((?x259 (store ?x257 22 31)))
 (let ((?x261 (store ?x259 23 28)))
 (let ((?x263 (store ?x261 24 31)))
 (let ((?x265 (store ?x263 25 30)))
 (let ((?x267 (store ?x265 26 31)))
 (let ((?x269 (store ?x267 27 30)))
 (let ((?x270 (store ?x269 28 31)))
 (let ((?x272 (store ?x270 29 31)))
 (let ((?x273 (store ?x272 30 30)))
 (let ((?x274 (store ?x273 31 31)))
 (let ((?x276 (store ?x274 32 30)))
 (let ((?x278 (store ?x276 33 31)))
 (let ((?x280 (store ?x278 34 31)))
 (let ((?x282 (store ?x280 35 28)))
 (let ((?x284 (store ?x282 36 31)))
 (let ((?x286 (store ?x284 37 30)))
 (let ((?x288 (store ?x286 38 31)))
 (let ((?x290 (store ?x288 39 30)))
 (let ((?x292 (store ?x290 40 31)))
 (let ((?x294 (store ?x292 41 31)))
 (let ((?x296 (store ?x294 42 30)))
 (let ((?x298 (store ?x296 43 31)))
 (let ((?x300 (store ?x298 44 30)))
 (let ((?x302 (store ?x300 45 31)))
 (let ((?x304 (store ?x302 46 31)))
 (let ((?x306 (store ?x304 47 29)))
 (let ((?x5141 (ite (or (= 22802 (+ x_months 24003)) (= 25202 (+ x_months 24003))) 28 (select ?x306 ?x5365))))
 (let (($x3167 (<= 0 x_beta)))
 (and $x3167 (< x_beta ?x5141)))))))))))))))))))))))))))))))))))))))))))))))))))))))
(assert
 (<= (- 1200) y_months))
(assert
 (>= 1199 y_months))
(assert
 (let ((?x4199 (mod y_months 48)))
 (let ((?x211 ((as const (Array Int Int)) 0)))
 (let ((?x213 (store ?x211 0 31)))
 (let ((?x216 (store ?x213 1 30)))
 (let ((?x218 (store ?x216 2 31)))
 (let ((?x220 (store ?x218 3 30)))
 (let ((?x222 (store ?x220 4 31)))
 (let ((?x224 (store ?x222 5 31)))
 (let ((?x226 (store ?x224 6 30)))
 (let ((?x228 (store ?x226 7 31)))
 (let ((?x230 (store ?x228 8 30)))
 (let ((?x232 (store ?x230 9 31)))
 (let ((?x234 (store ?x232 10 31)))
 (let ((?x237 (store ?x234 11 28)))
 (let ((?x239 (store ?x237 12 31)))
 (let ((?x241 (store ?x239 13 30)))
 (let ((?x243 (store ?x241 14 31)))
 (let ((?x245 (store ?x243 15 30)))
 (let ((?x247 (store ?x245 16 31)))
 (let ((?x249 (store ?x247 17 31)))
 (let ((?x251 (store ?x249 18 30)))
 (let ((?x253 (store ?x251 19 31)))
 (let ((?x255 (store ?x253 20 30)))
 (let ((?x257 (store ?x255 21 31)))
 (let ((?x259 (store ?x257 22 31)))
 (let ((?x261 (store ?x259 23 28)))
 (let ((?x263 (store ?x261 24 31)))
 (let ((?x265 (store ?x263 25 30)))
 (let ((?x267 (store ?x265 26 31)))
 (let ((?x269 (store ?x267 27 30)))
 (let ((?x270 (store ?x269 28 31)))
 (let ((?x272 (store ?x270 29 31)))
 (let ((?x273 (store ?x272 30 30)))
 (let ((?x274 (store ?x273 31 31)))
 (let ((?x276 (store ?x274 32 30)))
 (let ((?x278 (store ?x276 33 31)))
 (let ((?x280 (store ?x278 34 31)))
 (let ((?x282 (store ?x280 35 28)))
 (let ((?x284 (store ?x282 36 31)))
 (let ((?x286 (store ?x284 37 30)))
 (let ((?x288 (store ?x286 38 31)))
 (let ((?x290 (store ?x288 39 30)))
 (let ((?x292 (store ?x290 40 31)))
 (let ((?x294 (store ?x292 41 31)))
 (let ((?x296 (store ?x294 42 30)))
 (let ((?x298 (store ?x296 43 31)))
 (let ((?x300 (store ?x298 44 30)))
 (let ((?x302 (store ?x300 45 31)))
 (let ((?x304 (store ?x302 46 31)))
 (let ((?x306 (store ?x304 47 29)))
 (let ((?x5559 (select ?x306 ?x4199)))
 (let ((?x4025 (ite (or (= 22802 (+ y_months 24003)) (= 25202 (+ y_months 24003))) 28 ?x5559)))
 (let (($x6088 (<= 0 y_beta)))
 (and $x6088 (< y_beta ?x4025))))))))))))))))))))))))))))))))))))))))))))))))))))))))
(assert
 (let (($x3167 (<= 0 x_beta)))
 (or (> x_months (- (+ (* 2023 12) 6) 24003)) (and (= x_months (- (+ (* 2023 12) 6) 24003)) $x3167))))
(assert
 (let ((?x6671 (ite (> 22803 (+ (+ x_months 1) 24003)) 1 (ite (<= 25203 (+ (+ x_months 1) 24003)) (- 1) 0))))
 (let ((?x4545 (+ x_months 1)))
 (let ((?x5379 (mod ?x4545 48)))
 (let ((?x211 ((as const (Array Int Int)) 0)))
 (let ((?x213 (store ?x211 0 31)))
 (let ((?x216 (store ?x213 1 30)))
 (let ((?x218 (store ?x216 2 31)))
 (let ((?x220 (store ?x218 3 30)))
 (let ((?x222 (store ?x220 4 31)))
 (let ((?x224 (store ?x222 5 31)))
 (let ((?x226 (store ?x224 6 30)))
 (let ((?x228 (store ?x226 7 31)))
 (let ((?x230 (store ?x228 8 30)))
 (let ((?x232 (store ?x230 9 31)))
 (let ((?x234 (store ?x232 10 31)))
 (let ((?x237 (store ?x234 11 28)))
 (let ((?x239 (store ?x237 12 31)))
 (let ((?x241 (store ?x239 13 30)))
 (let ((?x243 (store ?x241 14 31)))
 (let ((?x245 (store ?x243 15 30)))
 (let ((?x247 (store ?x245 16 31)))
 (let ((?x249 (store ?x247 17 31)))
 (let ((?x251 (store ?x249 18 30)))
 (let ((?x253 (store ?x251 19 31)))
 (let ((?x255 (store ?x253 20 30)))
 (let ((?x257 (store ?x255 21 31)))
 (let ((?x259 (store ?x257 22 31)))
 (let ((?x261 (store ?x259 23 28)))
 (let ((?x263 (store ?x261 24 31)))
 (let ((?x265 (store ?x263 25 30)))
 (let ((?x267 (store ?x265 26 31)))
 (let ((?x269 (store ?x267 27 30)))
 (let ((?x270 (store ?x269 28 31)))
 (let ((?x272 (store ?x270 29 31)))
 (let ((?x273 (store ?x272 30 30)))
 (let ((?x274 (store ?x273 31 31)))
 (let ((?x276 (store ?x274 32 30)))
 (let ((?x278 (store ?x276 33 31)))
 (let ((?x280 (store ?x278 34 31)))
 (let ((?x282 (store ?x280 35 28)))
 (let ((?x284 (store ?x282 36 31)))
 (let ((?x286 (store ?x284 37 30)))
 (let ((?x288 (store ?x286 38 31)))
 (let ((?x290 (store ?x288 39 30)))
 (let ((?x292 (store ?x290 40 31)))
 (let ((?x294 (store ?x292 41 31)))
 (let ((?x296 (store ?x294 42 30)))
 (let ((?x298 (store ?x296 43 31)))
 (let ((?x300 (store ?x298 44 30)))
 (let ((?x302 (store ?x300 45 31)))
 (let ((?x304 (store ?x302 46 31)))
 (let ((?x306 (store ?x304 47 29)))
 (let ((?x6845 (ite (or (= 22802 (+ ?x4545 24003)) (= 25202 (+ ?x4545 24003))) 28 (select ?x306 ?x5379))))
 (let ((?x6860 (- ?x6845 1)))
 (let ((?x312 (store (store (store (store ?x211 0 0) 1 31) 2 61) 3 92)))
 (let ((?x320 (store (store (store (store ?x312 4 122) 5 153) 6 184) 7 214)))
 (let ((?x328 (store (store (store (store ?x320 8 245) 9 275) 10 306) 11 337)))
 (let ((?x336 (store (store (store (store ?x328 12 365) 13 396) 14 426) 15 457)))
 (let ((?x344 (store (store (store (store ?x336 16 487) 17 518) 18 549) 19 579)))
 (let ((?x352 (store (store (store (store ?x344 20 610) 21 640) 22 671) 23 702)))
 (let ((?x360 (store (store (store (store ?x352 24 730) 25 761) 26 791) 27 822)))
 (let ((?x368 (store (store (store (store ?x360 28 852) 29 883) 30 914) 31 944)))
 (let ((?x376 (store (store (store (store ?x368 32 975) 33 1005) 34 1036) 35 1067)))
 (let ((?x384 (store (store (store (store ?x376 36 1095) 37 1126) 38 1156) 39 1187)))
 (let ((?x392 (store (store (store (store ?x384 40 1217) 41 1248) 42 1279) 43 1309)))
 (let ((?x400 (store (store (store (store ?x392 44 1340) 45 1370) 46 1401) 47 1432)))
 (let ((?x4483 (+ (select ?x400 ?x5379) (ite (> 0 x_beta) 0 (ite (> x_beta ?x6860) ?x6860 x_beta)))))
 (let ((?x5516 (+ (+ ?x4483 ?x6671) 0)))
 (let ((?x6879 (+ ?x4545 (* (div ?x5516 1461) 48))))
 (let ((?x2700 (+ (+ ?x6879 (- 1 ?x5379)) 24003)))
 (let ((?x4154 (select ?x400 1)))
 (let ((?x2931 (mod ?x5516 1461)))
 (let (($x4887 (>= ?x2931 (+ ?x4154 (ite (> 22803 ?x2700) 1 (ite (<= 25203 ?x2700) (- 1) 0))))))
 (let ((?x4132 (ite (> 22803 (+ (+ ?x6879 (- 2 ?x5379)) 24003)) 1 (ite (<= 25203 (+ (+ ?x6879 (- 2 ?x5379)) 24003)) (- 1) 0))))
 (let ((?x3311 (select ?x400 2)))
 (let ((?x2398 (ite (> 22803 (+ (+ ?x6879 (- 3 ?x5379)) 24003)) 1 (ite (<= 25203 (+ (+ ?x6879 (- 3 ?x5379)) 24003)) (- 1) 0))))
 (let ((?x2494 (select ?x400 3)))
 (let ((?x2871 (ite (>= ?x2931 (+ ?x2494 ?x2398)) 3 (ite (>= ?x2931 (+ ?x3311 ?x4132)) 2 (ite $x4887 1 0)))))
 (let ((?x2504 (ite (> 22803 (+ (+ ?x6879 (- 4 ?x5379)) 24003)) 1 (ite (<= 25203 (+ (+ ?x6879 (- 4 ?x5379)) 24003)) (- 1) 0))))
 (let ((?x3532 (select ?x400 4)))
 (let ((?x3410 (ite (> 22803 (+ (+ ?x6879 (- 5 ?x5379)) 24003)) 1 (ite (<= 25203 (+ (+ ?x6879 (- 5 ?x5379)) 24003)) (- 1) 0))))
 (let ((?x2613 (select ?x400 5)))
 (let ((?x2841 (ite (>= ?x2931 (+ ?x2613 ?x3410)) 5 (ite (>= ?x2931 (+ ?x3532 ?x2504)) 4 ?x2871))))
 (let ((?x4204 (ite (> 22803 (+ (+ ?x6879 (- 6 ?x5379)) 24003)) 1 (ite (<= 25203 (+ (+ ?x6879 (- 6 ?x5379)) 24003)) (- 1) 0))))
 (let ((?x2094 (select ?x400 6)))
 (let ((?x3406 (ite (> 22803 (+ (+ ?x6879 (- 7 ?x5379)) 24003)) 1 (ite (<= 25203 (+ (+ ?x6879 (- 7 ?x5379)) 24003)) (- 1) 0))))
 (let ((?x1746 (select ?x400 7)))
 (let ((?x3630 (ite (>= ?x2931 (+ ?x1746 ?x3406)) 7 (ite (>= ?x2931 (+ ?x2094 ?x4204)) 6 ?x2841))))
 (let ((?x3868 (ite (> 22803 (+ (+ ?x6879 (- 8 ?x5379)) 24003)) 1 (ite (<= 25203 (+ (+ ?x6879 (- 8 ?x5379)) 24003)) (- 1) 0))))
 (let ((?x3149 (select ?x400 8)))
 (let ((?x1240 (ite (> 22803 (+ (+ ?x6879 (- 9 ?x5379)) 24003)) 1 (ite (<= 25203 (+ (+ ?x6879 (- 9 ?x5379)) 24003)) (- 1) 0))))
 (let ((?x2960 (select ?x400 9)))
 (let ((?x1909 (ite (>= ?x2931 (+ ?x2960 ?x1240)) 9 (ite (>= ?x2931 (+ ?x3149 ?x3868)) 8 ?x3630))))
 (let ((?x4425 (ite (> 22803 (+ (+ ?x6879 (- 10 ?x5379)) 24003)) 1 (ite (<= 25203 (+ (+ ?x6879 (- 10 ?x5379)) 24003)) (- 1) 0))))
 (let ((?x3861 (select ?x400 10)))
 (let ((?x4389 (ite (> 22803 (+ (+ ?x6879 (- 11 ?x5379)) 24003)) 1 (ite (<= 25203 (+ (+ ?x6879 (- 11 ?x5379)) 24003)) (- 1) 0))))
 (let ((?x883 (select ?x400 11)))
 (let ((?x2725 (ite (>= ?x2931 (+ ?x883 ?x4389)) 11 (ite (>= ?x2931 (+ ?x3861 ?x4425)) 10 ?x1909))))
 (let ((?x4773 (ite (> 22803 (+ (+ ?x6879 (- 12 ?x5379)) 24003)) 1 (ite (<= 25203 (+ (+ ?x6879 (- 12 ?x5379)) 24003)) (- 1) 0))))
 (let ((?x4278 (select ?x400 12)))
 (let ((?x3727 (ite (> 22803 (+ (+ ?x6879 (- 13 ?x5379)) 24003)) 1 (ite (<= 25203 (+ (+ ?x6879 (- 13 ?x5379)) 24003)) (- 1) 0))))
 (let ((?x910 (select ?x400 13)))
 (let ((?x674 (ite (>= ?x2931 (+ ?x910 ?x3727)) 13 (ite (>= ?x2931 (+ ?x4278 ?x4773)) 12 ?x2725))))
 (let ((?x5232 (ite (> 22803 (+ (+ ?x6879 (- 14 ?x5379)) 24003)) 1 (ite (<= 25203 (+ (+ ?x6879 (- 14 ?x5379)) 24003)) (- 1) 0))))
 (let ((?x5590 (select ?x400 14)))
 (let ((?x5235 (ite (> 22803 (+ (+ ?x6879 (- 15 ?x5379)) 24003)) 1 (ite (<= 25203 (+ (+ ?x6879 (- 15 ?x5379)) 24003)) (- 1) 0))))
 (let ((?x6592 (select ?x400 15)))
 (let ((?x5258 (ite (>= ?x2931 (+ ?x6592 ?x5235)) 15 (ite (>= ?x2931 (+ ?x5590 ?x5232)) 14 ?x674))))
 (let ((?x2477 (ite (> 22803 (+ (+ ?x6879 (- 16 ?x5379)) 24003)) 1 (ite (<= 25203 (+ (+ ?x6879 (- 16 ?x5379)) 24003)) (- 1) 0))))
 (let ((?x2120 (select ?x400 16)))
 (let ((?x4397 (ite (> 22803 (+ (+ ?x6879 (- 17 ?x5379)) 24003)) 1 (ite (<= 25203 (+ (+ ?x6879 (- 17 ?x5379)) 24003)) (- 1) 0))))
 (let ((?x1319 (select ?x400 17)))
 (let ((?x5728 (ite (>= ?x2931 (+ ?x1319 ?x4397)) 17 (ite (>= ?x2931 (+ ?x2120 ?x2477)) 16 ?x5258))))
 (let ((?x5418 (ite (> 22803 (+ (+ ?x6879 (- 18 ?x5379)) 24003)) 1 (ite (<= 25203 (+ (+ ?x6879 (- 18 ?x5379)) 24003)) (- 1) 0))))
 (let ((?x5148 (select ?x400 18)))
 (let ((?x1155 (ite (> 22803 (+ (+ ?x6879 (- 19 ?x5379)) 24003)) 1 (ite (<= 25203 (+ (+ ?x6879 (- 19 ?x5379)) 24003)) (- 1) 0))))
 (let ((?x1313 (select ?x400 19)))
 (let ((?x5137 (ite (>= ?x2931 (+ ?x1313 ?x1155)) 19 (ite (>= ?x2931 (+ ?x5148 ?x5418)) 18 ?x5728))))
 (let ((?x6364 (ite (> 22803 (+ (+ ?x6879 (- 20 ?x5379)) 24003)) 1 (ite (<= 25203 (+ (+ ?x6879 (- 20 ?x5379)) 24003)) (- 1) 0))))
 (let ((?x3216 (select ?x400 20)))
 (let ((?x4206 (ite (> 22803 (+ (+ ?x6879 (- 21 ?x5379)) 24003)) 1 (ite (<= 25203 (+ (+ ?x6879 (- 21 ?x5379)) 24003)) (- 1) 0))))
 (let ((?x4701 (select ?x400 21)))
 (let ((?x6316 (ite (>= ?x2931 (+ ?x4701 ?x4206)) 21 (ite (>= ?x2931 (+ ?x3216 ?x6364)) 20 ?x5137))))
 (let ((?x6597 (ite (> 22803 (+ (+ ?x6879 (- 22 ?x5379)) 24003)) 1 (ite (<= 25203 (+ (+ ?x6879 (- 22 ?x5379)) 24003)) (- 1) 0))))
 (let ((?x6598 (select ?x400 22)))
 (let ((?x6767 (ite (> 22803 (+ (+ ?x6879 (- 23 ?x5379)) 24003)) 1 (ite (<= 25203 (+ (+ ?x6879 (- 23 ?x5379)) 24003)) (- 1) 0))))
 (let ((?x6777 (select ?x400 23)))
 (let ((?x6752 (ite (>= ?x2931 (+ ?x6777 ?x6767)) 23 (ite (>= ?x2931 (+ ?x6598 ?x6597)) 22 ?x6316))))
 (let ((?x4392 (ite (> 22803 (+ (+ ?x6879 (- 24 ?x5379)) 24003)) 1 (ite (<= 25203 (+ (+ ?x6879 (- 24 ?x5379)) 24003)) (- 1) 0))))
 (let ((?x6712 (select ?x400 24)))
 (let ((?x3815 (ite (> 22803 (+ (+ ?x6879 (- 25 ?x5379)) 24003)) 1 (ite (<= 25203 (+ (+ ?x6879 (- 25 ?x5379)) 24003)) (- 1) 0))))
 (let ((?x4779 (select ?x400 25)))
 (let ((?x1628 (ite (>= ?x2931 (+ ?x4779 ?x3815)) 25 (ite (>= ?x2931 (+ ?x6712 ?x4392)) 24 ?x6752))))
 (let ((?x1341 (ite (> 22803 (+ (+ ?x6879 (- 26 ?x5379)) 24003)) 1 (ite (<= 25203 (+ (+ ?x6879 (- 26 ?x5379)) 24003)) (- 1) 0))))
 (let ((?x5324 (select ?x400 26)))
 (let ((?x2431 (ite (> 22803 (+ (+ ?x6879 (- 27 ?x5379)) 24003)) 1 (ite (<= 25203 (+ (+ ?x6879 (- 27 ?x5379)) 24003)) (- 1) 0))))
 (let ((?x3791 (select ?x400 27)))
 (let ((?x3329 (ite (>= ?x2931 (+ ?x3791 ?x2431)) 27 (ite (>= ?x2931 (+ ?x5324 ?x1341)) 26 ?x1628))))
 (let ((?x3841 (ite (> 22803 (+ (+ ?x6879 (- 28 ?x5379)) 24003)) 1 (ite (<= 25203 (+ (+ ?x6879 (- 28 ?x5379)) 24003)) (- 1) 0))))
 (let ((?x3961 (select ?x400 28)))
 (let ((?x731 (ite (> 22803 (+ (+ ?x6879 (- 29 ?x5379)) 24003)) 1 (ite (<= 25203 (+ (+ ?x6879 (- 29 ?x5379)) 24003)) (- 1) 0))))
 (let ((?x4428 (select ?x400 29)))
 (let ((?x5608 (ite (>= ?x2931 (+ ?x4428 ?x731)) 29 (ite (>= ?x2931 (+ ?x3961 ?x3841)) 28 ?x3329))))
 (let ((?x1622 (ite (> 22803 (+ (+ ?x6879 (- 30 ?x5379)) 24003)) 1 (ite (<= 25203 (+ (+ ?x6879 (- 30 ?x5379)) 24003)) (- 1) 0))))
 (let ((?x4158 (select ?x400 30)))
 (let ((?x5051 (ite (> 22803 (+ (+ ?x6879 (- 31 ?x5379)) 24003)) 1 (ite (<= 25203 (+ (+ ?x6879 (- 31 ?x5379)) 24003)) (- 1) 0))))
 (let ((?x5622 (select ?x400 31)))
 (let ((?x5055 (ite (>= ?x2931 (+ ?x5622 ?x5051)) 31 (ite (>= ?x2931 (+ ?x4158 ?x1622)) 30 ?x5608))))
 (let ((?x2297 (ite (> 22803 (+ (+ ?x6879 (- 32 ?x5379)) 24003)) 1 (ite (<= 25203 (+ (+ ?x6879 (- 32 ?x5379)) 24003)) (- 1) 0))))
 (let ((?x2888 (select ?x400 32)))
 (let ((?x5068 (ite (> 22803 (+ (+ ?x6879 (- 33 ?x5379)) 24003)) 1 (ite (<= 25203 (+ (+ ?x6879 (- 33 ?x5379)) 24003)) (- 1) 0))))
 (let ((?x5259 (select ?x400 33)))
 (let ((?x4914 (ite (>= ?x2931 (+ ?x5259 ?x5068)) 33 (ite (>= ?x2931 (+ ?x2888 ?x2297)) 32 ?x5055))))
 (let ((?x2469 (ite (> 22803 (+ (+ ?x6879 (- 34 ?x5379)) 24003)) 1 (ite (<= 25203 (+ (+ ?x6879 (- 34 ?x5379)) 24003)) (- 1) 0))))
 (let ((?x3870 (select ?x400 34)))
 (let ((?x4038 (ite (> 22803 (+ (+ ?x6879 (- 35 ?x5379)) 24003)) 1 (ite (<= 25203 (+ (+ ?x6879 (- 35 ?x5379)) 24003)) (- 1) 0))))
 (let ((?x2711 (select ?x400 35)))
 (let ((?x4719 (ite (>= ?x2931 (+ ?x2711 ?x4038)) 35 (ite (>= ?x2931 (+ ?x3870 ?x2469)) 34 ?x4914))))
 (let ((?x3793 (ite (> 22803 (+ (+ ?x6879 (- 36 ?x5379)) 24003)) 1 (ite (<= 25203 (+ (+ ?x6879 (- 36 ?x5379)) 24003)) (- 1) 0))))
 (let ((?x6011 (select ?x400 36)))
 (let ((?x5353 (ite (> 22803 (+ (+ ?x6879 (- 37 ?x5379)) 24003)) 1 (ite (<= 25203 (+ (+ ?x6879 (- 37 ?x5379)) 24003)) (- 1) 0))))
 (let ((?x408 (select ?x400 37)))
 (let ((?x6542 (ite (>= ?x2931 (+ ?x408 ?x5353)) 37 (ite (>= ?x2931 (+ ?x6011 ?x3793)) 36 ?x4719))))
 (let ((?x4690 (ite (> 22803 (+ (+ ?x6879 (- 38 ?x5379)) 24003)) 1 (ite (<= 25203 (+ (+ ?x6879 (- 38 ?x5379)) 24003)) (- 1) 0))))
 (let ((?x1651 (select ?x400 38)))
 (let ((?x4302 (ite (> 22803 (+ (+ ?x6879 (- 39 ?x5379)) 24003)) 1 (ite (<= 25203 (+ (+ ?x6879 (- 39 ?x5379)) 24003)) (- 1) 0))))
 (let ((?x3527 (select ?x400 39)))
 (let ((?x4457 (ite (>= ?x2931 (+ ?x3527 ?x4302)) 39 (ite (>= ?x2931 (+ ?x1651 ?x4690)) 38 ?x6542))))
 (let ((?x5286 (ite (> 22803 (+ (+ ?x6879 (- 40 ?x5379)) 24003)) 1 (ite (<= 25203 (+ (+ ?x6879 (- 40 ?x5379)) 24003)) (- 1) 0))))
 (let ((?x3242 (select ?x400 40)))
 (let ((?x4485 (ite (> 22803 (+ (+ ?x6879 (- 41 ?x5379)) 24003)) 1 (ite (<= 25203 (+ (+ ?x6879 (- 41 ?x5379)) 24003)) (- 1) 0))))
 (let ((?x6537 (select ?x400 41)))
 (let ((?x4869 (ite (>= ?x2931 (+ ?x6537 ?x4485)) 41 (ite (>= ?x2931 (+ ?x3242 ?x5286)) 40 ?x4457))))
 (let ((?x4741 (ite (> 22803 (+ (+ ?x6879 (- 42 ?x5379)) 24003)) 1 (ite (<= 25203 (+ (+ ?x6879 (- 42 ?x5379)) 24003)) (- 1) 0))))
 (let ((?x6104 (select ?x400 42)))
 (let ((?x1893 (ite (> 22803 (+ (+ ?x6879 (- 43 ?x5379)) 24003)) 1 (ite (<= 25203 (+ (+ ?x6879 (- 43 ?x5379)) 24003)) (- 1) 0))))
 (let ((?x2388 (select ?x400 43)))
 (let ((?x5796 (ite (>= ?x2931 (+ ?x2388 ?x1893)) 43 (ite (>= ?x2931 (+ ?x6104 ?x4741)) 42 ?x4869))))
 (let ((?x2525 (ite (> 22803 (+ (+ ?x6879 (- 44 ?x5379)) 24003)) 1 (ite (<= 25203 (+ (+ ?x6879 (- 44 ?x5379)) 24003)) (- 1) 0))))
 (let ((?x5358 (select ?x400 44)))
 (let ((?x1289 (ite (> 22803 (+ (+ ?x6879 (- 45 ?x5379)) 24003)) 1 (ite (<= 25203 (+ (+ ?x6879 (- 45 ?x5379)) 24003)) (- 1) 0))))
 (let ((?x1713 (select ?x400 45)))
 (let ((?x2919 (ite (>= ?x2931 (+ ?x1713 ?x1289)) 45 (ite (>= ?x2931 (+ ?x5358 ?x2525)) 44 ?x5796))))
 (let ((?x2800 (ite (> 22803 (+ (+ ?x6879 (- 46 ?x5379)) 24003)) 1 (ite (<= 25203 (+ (+ ?x6879 (- 46 ?x5379)) 24003)) (- 1) 0))))
 (let ((?x5614 (select ?x400 46)))
 (let ((?x6244 (ite (> 22803 (+ (+ ?x6879 (- 47 ?x5379)) 24003)) 1 (ite (<= 25203 (+ (+ ?x6879 (- 47 ?x5379)) 24003)) (- 1) 0))))
 (let ((?x2424 (select ?x400 47)))
 (let ((?x1903 (ite (>= ?x2931 (+ ?x2424 ?x6244)) 47 (ite (>= ?x2931 (+ ?x5614 ?x2800)) 46 ?x2919))))
 (let (($x4866 (or (= 22802 (+ (+ ?x6879 (- ?x1903 ?x5379)) 24003)) (= 25202 (+ (+ ?x6879 (- ?x1903 ?x5379)) 24003)))))
 (let ((?x1120 (ite $x4866 28 (select ?x306 ?x1903))))
 (let ((?x1663 (ite (> 22803 (+ (+ ?x6879 (- ?x1903 ?x5379)) 24003)) 1 (ite (<= 25203 (+ (+ ?x6879 (- ?x1903 ?x5379)) 24003)) (- 1) 0))))
 (let ((?x4915 (- ?x2931 (+ (select ?x400 ?x1903) ?x1663))))
 (let ((?x3255 (ite (>= ?x4915 ?x1120) 1 0)))
 (let ((?x1619 (+ ?x6879 (- ?x1903 ?x5379))))
 (let ((?x2014 (+ (+ ?x1619 ?x3255) 0)))
 (let ((?x1466 (mod ?x2014 48)))
 (let ((?x473 (ite (> 22803 (+ ?x2014 24003)) 1 (ite (<= 25203 (+ ?x2014 24003)) (- 1) 0))))
 (let ((?x1625 (ite (= 1 ?x3255) (- ?x4915 ?x1120) ?x4915)))
 (let ((?x5105 (ite (or (= 22802 (+ ?x2014 24003)) (= 25202 (+ ?x2014 24003))) 28 (select ?x306 ?x1466))))
 (let ((?x5022 (- ?x5105 1)))
 (let ((?x5848 (+ (select ?x400 ?x1466) (ite (> 0 ?x1625) 0 (ite (> ?x1625 ?x5022) ?x5022 ?x1625)))))
 (let ((?x2015 (+ (+ ?x5848 ?x473) 15)))
 (let ((?x6095 (+ ?x2014 (* (div ?x2015 1461) 48))))
 (let ((?x5952 (+ (+ ?x6095 (- 1 ?x1466)) 24003)))
 (let ((?x5111 (mod ?x2015 1461)))
 (let (($x6694 (>= ?x5111 (+ ?x4154 (ite (> 22803 ?x5952) 1 (ite (<= 25203 ?x5952) (- 1) 0))))))
 (let ((?x4808 (ite (> 22803 (+ (+ ?x6095 (- 2 ?x1466)) 24003)) 1 (ite (<= 25203 (+ (+ ?x6095 (- 2 ?x1466)) 24003)) (- 1) 0))))
 (let ((?x2341 (ite (> 22803 (+ (+ ?x6095 (- 3 ?x1466)) 24003)) 1 (ite (<= 25203 (+ (+ ?x6095 (- 3 ?x1466)) 24003)) (- 1) 0))))
 (let ((?x1879 (ite (>= ?x5111 (+ ?x2494 ?x2341)) 3 (ite (>= ?x5111 (+ ?x3311 ?x4808)) 2 (ite $x6694 1 0)))))
 (let ((?x2662 (ite (> 22803 (+ (+ ?x6095 (- 4 ?x1466)) 24003)) 1 (ite (<= 25203 (+ (+ ?x6095 (- 4 ?x1466)) 24003)) (- 1) 0))))
 (let ((?x4233 (ite (> 22803 (+ (+ ?x6095 (- 5 ?x1466)) 24003)) 1 (ite (<= 25203 (+ (+ ?x6095 (- 5 ?x1466)) 24003)) (- 1) 0))))
 (let ((?x6882 (ite (>= ?x5111 (+ ?x2613 ?x4233)) 5 (ite (>= ?x5111 (+ ?x3532 ?x2662)) 4 ?x1879))))
 (let ((?x6792 (ite (> 22803 (+ (+ ?x6095 (- 6 ?x1466)) 24003)) 1 (ite (<= 25203 (+ (+ ?x6095 (- 6 ?x1466)) 24003)) (- 1) 0))))
 (let ((?x4413 (ite (> 22803 (+ (+ ?x6095 (- 7 ?x1466)) 24003)) 1 (ite (<= 25203 (+ (+ ?x6095 (- 7 ?x1466)) 24003)) (- 1) 0))))
 (let ((?x5870 (ite (>= ?x5111 (+ ?x1746 ?x4413)) 7 (ite (>= ?x5111 (+ ?x2094 ?x6792)) 6 ?x6882))))
 (let ((?x3096 (ite (> 22803 (+ (+ ?x6095 (- 8 ?x1466)) 24003)) 1 (ite (<= 25203 (+ (+ ?x6095 (- 8 ?x1466)) 24003)) (- 1) 0))))
 (let ((?x4879 (ite (> 22803 (+ (+ ?x6095 (- 9 ?x1466)) 24003)) 1 (ite (<= 25203 (+ (+ ?x6095 (- 9 ?x1466)) 24003)) (- 1) 0))))
 (let ((?x5884 (ite (>= ?x5111 (+ ?x2960 ?x4879)) 9 (ite (>= ?x5111 (+ ?x3149 ?x3096)) 8 ?x5870))))
 (let ((?x2034 (ite (> 22803 (+ (+ ?x6095 (- 10 ?x1466)) 24003)) 1 (ite (<= 25203 (+ (+ ?x6095 (- 10 ?x1466)) 24003)) (- 1) 0))))
 (let ((?x3682 (ite (> 22803 (+ (+ ?x6095 (- 11 ?x1466)) 24003)) 1 (ite (<= 25203 (+ (+ ?x6095 (- 11 ?x1466)) 24003)) (- 1) 0))))
 (let ((?x1898 (ite (>= ?x5111 (+ ?x883 ?x3682)) 11 (ite (>= ?x5111 (+ ?x3861 ?x2034)) 10 ?x5884))))
 (let ((?x4066 (ite (> 22803 (+ (+ ?x6095 (- 12 ?x1466)) 24003)) 1 (ite (<= 25203 (+ (+ ?x6095 (- 12 ?x1466)) 24003)) (- 1) 0))))
 (let ((?x6607 (ite (> 22803 (+ (+ ?x6095 (- 13 ?x1466)) 24003)) 1 (ite (<= 25203 (+ (+ ?x6095 (- 13 ?x1466)) 24003)) (- 1) 0))))
 (let ((?x4791 (ite (>= ?x5111 (+ ?x910 ?x6607)) 13 (ite (>= ?x5111 (+ ?x4278 ?x4066)) 12 ?x1898))))
 (let ((?x5436 (ite (> 22803 (+ (+ ?x6095 (- 14 ?x1466)) 24003)) 1 (ite (<= 25203 (+ (+ ?x6095 (- 14 ?x1466)) 24003)) (- 1) 0))))
 (let ((?x5146 (ite (> 22803 (+ (+ ?x6095 (- 15 ?x1466)) 24003)) 1 (ite (<= 25203 (+ (+ ?x6095 (- 15 ?x1466)) 24003)) (- 1) 0))))
 (let ((?x5306 (ite (>= ?x5111 (+ ?x6592 ?x5146)) 15 (ite (>= ?x5111 (+ ?x5590 ?x5436)) 14 ?x4791))))
 (let ((?x6891 (ite (> 22803 (+ (+ ?x6095 (- 16 ?x1466)) 24003)) 1 (ite (<= 25203 (+ (+ ?x6095 (- 16 ?x1466)) 24003)) (- 1) 0))))
 (let ((?x4378 (ite (> 22803 (+ (+ ?x6095 (- 17 ?x1466)) 24003)) 1 (ite (<= 25203 (+ (+ ?x6095 (- 17 ?x1466)) 24003)) (- 1) 0))))
 (let ((?x6781 (ite (>= ?x5111 (+ ?x1319 ?x4378)) 17 (ite (>= ?x5111 (+ ?x2120 ?x6891)) 16 ?x5306))))
 (let ((?x2816 (ite (> 22803 (+ (+ ?x6095 (- 18 ?x1466)) 24003)) 1 (ite (<= 25203 (+ (+ ?x6095 (- 18 ?x1466)) 24003)) (- 1) 0))))
 (let ((?x1522 (ite (> 22803 (+ (+ ?x6095 (- 19 ?x1466)) 24003)) 1 (ite (<= 25203 (+ (+ ?x6095 (- 19 ?x1466)) 24003)) (- 1) 0))))
 (let ((?x2273 (ite (>= ?x5111 (+ ?x1313 ?x1522)) 19 (ite (>= ?x5111 (+ ?x5148 ?x2816)) 18 ?x6781))))
 (let ((?x3379 (ite (> 22803 (+ (+ ?x6095 (- 20 ?x1466)) 24003)) 1 (ite (<= 25203 (+ (+ ?x6095 (- 20 ?x1466)) 24003)) (- 1) 0))))
 (let ((?x3896 (ite (> 22803 (+ (+ ?x6095 (- 21 ?x1466)) 24003)) 1 (ite (<= 25203 (+ (+ ?x6095 (- 21 ?x1466)) 24003)) (- 1) 0))))
 (let ((?x4014 (ite (>= ?x5111 (+ ?x4701 ?x3896)) 21 (ite (>= ?x5111 (+ ?x3216 ?x3379)) 20 ?x2273))))
 (let ((?x1442 (ite (> 22803 (+ (+ ?x6095 (- 22 ?x1466)) 24003)) 1 (ite (<= 25203 (+ (+ ?x6095 (- 22 ?x1466)) 24003)) (- 1) 0))))
 (let ((?x2029 (ite (> 22803 (+ (+ ?x6095 (- 23 ?x1466)) 24003)) 1 (ite (<= 25203 (+ (+ ?x6095 (- 23 ?x1466)) 24003)) (- 1) 0))))
 (let ((?x1566 (ite (>= ?x5111 (+ ?x6777 ?x2029)) 23 (ite (>= ?x5111 (+ ?x6598 ?x1442)) 22 ?x4014))))
 (let ((?x1080 (ite (> 22803 (+ (+ ?x6095 (- 24 ?x1466)) 24003)) 1 (ite (<= 25203 (+ (+ ?x6095 (- 24 ?x1466)) 24003)) (- 1) 0))))
 (let ((?x4472 (ite (> 22803 (+ (+ ?x6095 (- 25 ?x1466)) 24003)) 1 (ite (<= 25203 (+ (+ ?x6095 (- 25 ?x1466)) 24003)) (- 1) 0))))
 (let ((?x502 (ite (>= ?x5111 (+ ?x4779 ?x4472)) 25 (ite (>= ?x5111 (+ ?x6712 ?x1080)) 24 ?x1566))))
 (let ((?x5661 (ite (> 22803 (+ (+ ?x6095 (- 26 ?x1466)) 24003)) 1 (ite (<= 25203 (+ (+ ?x6095 (- 26 ?x1466)) 24003)) (- 1) 0))))
 (let ((?x6759 (ite (> 22803 (+ (+ ?x6095 (- 27 ?x1466)) 24003)) 1 (ite (<= 25203 (+ (+ ?x6095 (- 27 ?x1466)) 24003)) (- 1) 0))))
 (let ((?x4055 (ite (>= ?x5111 (+ ?x3791 ?x6759)) 27 (ite (>= ?x5111 (+ ?x5324 ?x5661)) 26 ?x502))))
 (let ((?x1771 (ite (> 22803 (+ (+ ?x6095 (- 28 ?x1466)) 24003)) 1 (ite (<= 25203 (+ (+ ?x6095 (- 28 ?x1466)) 24003)) (- 1) 0))))
 (let ((?x5566 (ite (> 22803 (+ (+ ?x6095 (- 29 ?x1466)) 24003)) 1 (ite (<= 25203 (+ (+ ?x6095 (- 29 ?x1466)) 24003)) (- 1) 0))))
 (let ((?x5209 (ite (>= ?x5111 (+ ?x4428 ?x5566)) 29 (ite (>= ?x5111 (+ ?x3961 ?x1771)) 28 ?x4055))))
 (let ((?x1164 (ite (> 22803 (+ (+ ?x6095 (- 30 ?x1466)) 24003)) 1 (ite (<= 25203 (+ (+ ?x6095 (- 30 ?x1466)) 24003)) (- 1) 0))))
 (let ((?x4817 (ite (> 22803 (+ (+ ?x6095 (- 31 ?x1466)) 24003)) 1 (ite (<= 25203 (+ (+ ?x6095 (- 31 ?x1466)) 24003)) (- 1) 0))))
 (let ((?x5313 (ite (>= ?x5111 (+ ?x5622 ?x4817)) 31 (ite (>= ?x5111 (+ ?x4158 ?x1164)) 30 ?x5209))))
 (let ((?x6093 (ite (> 22803 (+ (+ ?x6095 (- 32 ?x1466)) 24003)) 1 (ite (<= 25203 (+ (+ ?x6095 (- 32 ?x1466)) 24003)) (- 1) 0))))
 (let ((?x3007 (ite (> 22803 (+ (+ ?x6095 (- 33 ?x1466)) 24003)) 1 (ite (<= 25203 (+ (+ ?x6095 (- 33 ?x1466)) 24003)) (- 1) 0))))
 (let ((?x2096 (ite (>= ?x5111 (+ ?x5259 ?x3007)) 33 (ite (>= ?x5111 (+ ?x2888 ?x6093)) 32 ?x5313))))
 (let ((?x3891 (ite (> 22803 (+ (+ ?x6095 (- 34 ?x1466)) 24003)) 1 (ite (<= 25203 (+ (+ ?x6095 (- 34 ?x1466)) 24003)) (- 1) 0))))
 (let ((?x2004 (ite (> 22803 (+ (+ ?x6095 (- 35 ?x1466)) 24003)) 1 (ite (<= 25203 (+ (+ ?x6095 (- 35 ?x1466)) 24003)) (- 1) 0))))
 (let ((?x5677 (ite (>= ?x5111 (+ ?x2711 ?x2004)) 35 (ite (>= ?x5111 (+ ?x3870 ?x3891)) 34 ?x2096))))
 (let ((?x4259 (ite (> 22803 (+ (+ ?x6095 (- 36 ?x1466)) 24003)) 1 (ite (<= 25203 (+ (+ ?x6095 (- 36 ?x1466)) 24003)) (- 1) 0))))
 (let ((?x4758 (ite (> 22803 (+ (+ ?x6095 (- 37 ?x1466)) 24003)) 1 (ite (<= 25203 (+ (+ ?x6095 (- 37 ?x1466)) 24003)) (- 1) 0))))
 (let ((?x5567 (ite (>= ?x5111 (+ ?x408 ?x4758)) 37 (ite (>= ?x5111 (+ ?x6011 ?x4259)) 36 ?x5677))))
 (let ((?x4860 (ite (> 22803 (+ (+ ?x6095 (- 38 ?x1466)) 24003)) 1 (ite (<= 25203 (+ (+ ?x6095 (- 38 ?x1466)) 24003)) (- 1) 0))))
 (let ((?x5851 (ite (> 22803 (+ (+ ?x6095 (- 39 ?x1466)) 24003)) 1 (ite (<= 25203 (+ (+ ?x6095 (- 39 ?x1466)) 24003)) (- 1) 0))))
 (let ((?x3837 (ite (>= ?x5111 (+ ?x3527 ?x5851)) 39 (ite (>= ?x5111 (+ ?x1651 ?x4860)) 38 ?x5567))))
 (let ((?x5210 (ite (> 22803 (+ (+ ?x6095 (- 40 ?x1466)) 24003)) 1 (ite (<= 25203 (+ (+ ?x6095 (- 40 ?x1466)) 24003)) (- 1) 0))))
 (let ((?x5731 (ite (> 22803 (+ (+ ?x6095 (- 41 ?x1466)) 24003)) 1 (ite (<= 25203 (+ (+ ?x6095 (- 41 ?x1466)) 24003)) (- 1) 0))))
 (let ((?x4256 (ite (>= ?x5111 (+ ?x6537 ?x5731)) 41 (ite (>= ?x5111 (+ ?x3242 ?x5210)) 40 ?x3837))))
 (let ((?x5029 (ite (> 22803 (+ (+ ?x6095 (- 42 ?x1466)) 24003)) 1 (ite (<= 25203 (+ (+ ?x6095 (- 42 ?x1466)) 24003)) (- 1) 0))))
 (let ((?x3000 (ite (> 22803 (+ (+ ?x6095 (- 43 ?x1466)) 24003)) 1 (ite (<= 25203 (+ (+ ?x6095 (- 43 ?x1466)) 24003)) (- 1) 0))))
 (let ((?x3516 (ite (>= ?x5111 (+ ?x2388 ?x3000)) 43 (ite (>= ?x5111 (+ ?x6104 ?x5029)) 42 ?x4256))))
 (let ((?x3558 (ite (> 22803 (+ (+ ?x6095 (- 44 ?x1466)) 24003)) 1 (ite (<= 25203 (+ (+ ?x6095 (- 44 ?x1466)) 24003)) (- 1) 0))))
 (let ((?x4572 (ite (> 22803 (+ (+ ?x6095 (- 45 ?x1466)) 24003)) 1 (ite (<= 25203 (+ (+ ?x6095 (- 45 ?x1466)) 24003)) (- 1) 0))))
 (let ((?x5064 (ite (>= ?x5111 (+ ?x1713 ?x4572)) 45 (ite (>= ?x5111 (+ ?x5358 ?x3558)) 44 ?x3516))))
 (let ((?x6800 (ite (> 22803 (+ (+ ?x6095 (- 46 ?x1466)) 24003)) 1 (ite (<= 25203 (+ (+ ?x6095 (- 46 ?x1466)) 24003)) (- 1) 0))))
 (let ((?x1796 (ite (> 22803 (+ (+ ?x6095 (- 47 ?x1466)) 24003)) 1 (ite (<= 25203 (+ (+ ?x6095 (- 47 ?x1466)) 24003)) (- 1) 0))))
 (let ((?x1165 (ite (>= ?x5111 (+ ?x2424 ?x1796)) 47 (ite (>= ?x5111 (+ ?x5614 ?x6800)) 46 ?x5064))))
 (let ((?x5452 (+ ?x6095 (- ?x1165 ?x1466))))
 (let ((?x5702 (+ ?x5452 24003)))
 (let ((?x5835 (+ (select ?x400 ?x1165) (ite (> 22803 ?x5702) 1 (ite (<= 25203 ?x5702) (- 1) 0)))))
 (let ((?x734 (- ?x5111 ?x5835)))
 (let ((?x2162 (ite (or (= 22802 ?x5702) (= 25202 ?x5702)) 28 (select ?x306 ?x1165))))
 (let (($x5398 (= (ite (= 1 (ite (>= ?x734 ?x2162) 1 0)) (- ?x734 ?x2162) ?x734) y_beta)))
 (and (= (+ ?x5452 (ite (>= ?x734 ?x2162) 1 0)) y_months) $x5398)))))))))))))))))))))))))))))))))))))))))))))))))))))))))))))))))))))))))))))))))))))))))))))))))))))))))))))))))))))))))))))))))))))))))))))))))))))))))))))))))))))))))))))))))))))))))))))))))))))))))))))))))))))))))))))))))))))))))))))))))))))))))))))))))))))))))))))))))))))))))))
(assert
 (let (($x6088 (<= 0 y_beta)))
(or (> y_months (- (+ (* 2023 12) 6) 24003)) (and (= y_months (- (+ (* 2023 12) 6) 24003)) $x6088))))
(check-sat)
